
(set-logic ALL) 

(declare-datatype MyList ((Nil) (Cons (head Real) (tail MyList)) )) 
(declare-fun l0 () MyList) 
(declare-fun l1 () MyList) 
(declare-fun l2 () MyList) 
(declare-fun l3 () MyList) 
(declare-fun i0 () Real) 
(declare-fun i1 () Real) 
(assert (or (is-Cons l2) (is-Nil Nil) (= l3 l2)) )
(assert (= l1 Nil) )
(assert (= l3 Nil) )
(assert (not (= l3 Nil)) )
(assert (= l2 l0) )
(assert (= l2 Nil) )
(assert (or (= l3 Nil) (is-Nil Nil) (= l2 Nil) (= l1 Nil)) )
(assert (is-Nil l0) )
(check-sat)
